c Result of efficient AIG-to-CNF conversion using package CNF
p cnf 549 2003
-2 3 -470 -479 480 0
-2 3 470 479 480 0
2 -480 0
2 -470 479 0
2 -3 0
2 470 -479 0
-3 4 -449 -452 453 0
-3 4 449 452 453 0
3 -453 0
3 -449 452 0
3 -4 0
3 449 -452 0
-4 5 250 -441 -448 0
-4 -5 -250 -441 -448 0
-4 5 250 441 448 0
-4 -5 -250 441 448 0
4 5 -250 0
4 -5 250 0
4 441 -448 0
4 -441 448 0
5 6 118 -120 127 0
-5 -127 0
-5 -6 0
-5 120 0
-5 -118 0
-6 7 60 75 0
6 -75 0
6 -60 0
6 -7 0
7 8 -19 0
7 8 -22 0
-7 -8 0
-7 19 22 0
-8 9 15 17 18 0
8 -18 0
8 -9 0
8 -17 0
8 -15 0
-9 509 510 10 12 0
9 -509 0
9 -12 0
9 -10 0
9 -510 0
-10 501 507 508 11 0
10 -11 0
10 -508 0
10 -501 0
10 -507 0
-11 505 506 511 0
11 -505 0
11 -511 0
11 -506 0
-12 497 498 13 14 0
12 -497 0
12 -14 0
12 -13 0
12 -498 0
-13 502 503 504 0
13 -502 0
13 -504 0
13 -503 0
-14 493 494 499 500 0
14 -500 0
14 -499 0
14 -493 0
14 -494 0
-15 491 495 496 16 0
15 -16 0
15 -496 0
15 -491 0
15 -495 0
-16 489 490 0
16 -489 0
16 -490 0
-17 485 492 0
17 -485 0
17 -492 0
-18 486 487 488 0
18 -486 0
18 -488 0
18 -487 0
19 -512 -20 0
-19 512 0
-19 20 0
20 513 -21 0
-20 -513 0
-20 21 0
21 514 515 516 -548 0
-21 548 0
-21 -516 0
-21 -514 0
-21 -515 0
22 512 -513 -48 0
22 512 513 -23 0
-22 -512 0
-22 -513 48 0
-22 513 23 0
23 514 -24 0
23 -514 -43 0
-23 -514 43 0
-23 514 24 0
24 515 -25 0
24 -515 -41 0
-24 -515 41 0
-24 515 25 0
25 -516 -40 0
25 516 -532 26 0
25 516 532 -26 0
-25 -516 40 0
-25 516 -532 -26 0
-25 516 532 26 0
-26 533 27 0
26 -533 0
26 -27 0
-27 534 28 0
27 -534 0
27 -28 0
-28 535 29 0
28 -535 0
28 -29 0
-29 536 30 0
29 -536 0
29 -30 0
-30 537 31 0
30 -537 0
30 -31 0
-31 538 32 0
31 -538 0
31 -32 0
-32 539 33 0
32 -539 0
32 -33 0
-33 540 34 0
33 -540 0
33 -34 0
-34 541 35 0
34 -541 0
34 -35 0
-35 542 36 0
35 -542 0
35 -36 0
-36 543 37 0
36 -543 0
36 -37 0
-37 544 38 0
37 -544 0
37 -38 0
-38 545 39 0
38 -545 0
38 -39 0
-39 546 547 548 0
39 -546 0
39 -548 0
39 -547 0
40 -533 27 0
40 533 -27 0
-40 533 27 0
-40 -533 -27 0
41 -516 -42 0
41 516 -534 28 0
41 516 534 -28 0
-41 -516 42 0
-41 516 -534 -28 0
-41 516 534 28 0
42 -535 29 0
42 535 -29 0
-42 535 29 0
-42 -535 -29 0
43 515 -44 0
43 -515 -46 0
-43 -515 46 0
-43 515 44 0
44 -516 -45 0
44 516 -536 30 0
44 516 536 -30 0
-44 -516 45 0
-44 516 -536 -30 0
-44 516 536 30 0
45 -537 31 0
45 537 -31 0
-45 537 31 0
-45 -537 -31 0
46 -516 -47 0
46 516 -538 32 0
46 516 538 -32 0
-46 -516 47 0
-46 516 -538 -32 0
-46 516 538 32 0
47 -539 33 0
47 539 -33 0
-47 539 33 0
-47 -539 -33 0
48 514 -49 0
48 -514 -54 0
-48 -514 54 0
-48 514 49 0
49 515 -50 0
49 -515 -52 0
-49 -515 52 0
-49 515 50 0
50 -516 -51 0
50 516 -540 34 0
50 516 540 -34 0
-50 -516 51 0
-50 516 -540 -34 0
-50 516 540 34 0
51 -541 35 0
51 541 -35 0
-51 541 35 0
-51 -541 -35 0
52 -516 -53 0
52 516 -542 36 0
52 516 542 -36 0
-52 -516 53 0
-52 516 -542 -36 0
-52 516 542 36 0
53 -543 37 0
53 543 -37 0
-53 543 37 0
-53 -543 -37 0
54 515 -55 0
54 -515 -57 0
-54 -515 57 0
-54 515 55 0
55 -516 -56 0
55 516 -544 38 0
55 516 544 -38 0
-55 -516 56 0
-55 516 -544 -38 0
-55 516 544 38 0
56 -545 39 0
56 545 -39 0
-56 545 39 0
-56 -545 -39 0
57 516 -58 0
57 -516 547 -548 0
57 -516 -547 548 0
-57 516 58 0
-57 -516 -547 -548 0
-57 -516 547 548 0
58 -546 59 0
58 546 -59 0
-58 546 59 0
-58 -546 -59 0
-59 547 548 0
59 -547 0
59 -548 0
60 8 -64 0
60 -512 8 -61 0
-60 -8 0
-60 61 64 0
-60 512 64 0
61 513 -62 0
-61 -513 0
-61 62 0
62 514 -63 0
-62 -514 0
-62 63 0
-63 -515 -516 0
-63 515 57 0
-63 -515 548 0
63 515 -57 0
63 -515 516 -548 0
64 512 -513 -72 0
64 512 513 -65 0
-64 -512 0
-64 -513 72 0
-64 513 65 0
65 514 -66 0
65 -514 -71 0
-65 -514 71 0
-65 514 66 0
66 -515 -25 0
66 515 -67 0
-66 515 67 0
-66 -515 25 0
67 -516 -70 0
67 516 -530 68 0
67 516 530 -68 0
-67 -516 70 0
-67 516 -530 -68 0
-67 516 530 68 0
-68 531 69 0
68 -531 0
68 -69 0
-69 532 26 0
69 -532 0
69 -26 0
70 -531 69 0
70 531 -69 0
-70 531 69 0
-70 -531 -69 0
71 515 -41 0
71 -515 -44 0
-71 -515 44 0
-71 515 41 0
72 514 -73 0
72 -514 -74 0
-72 -514 74 0
-72 514 73 0
73 515 -46 0
73 -515 -50 0
-73 -515 50 0
-73 515 46 0
74 515 -52 0
74 -515 -55 0
-74 -515 55 0
-74 515 52 0
-75 76 103 0
75 -76 0
75 -103 0
76 8 -81 0
76 -512 8 -77 0
-76 -8 0
-76 77 81 0
-76 512 81 0
77 513 -78 0
-77 -513 0
-77 78 0
78 514 -79 0
-78 -514 0
-78 79 0
79 515 -80 0
-79 -515 0
-79 80 0
-80 547 548 0
-80 516 -547 -548 0
-80 -516 548 0
80 -516 -548 0
80 547 -548 0
80 516 -547 548 0
81 512 -513 -93 0
81 512 513 -82 0
-81 -512 0
-81 -513 93 0
-81 513 82 0
82 514 -83 0
82 -514 -88 0
-82 -514 88 0
-82 514 83 0
83 515 -84 0
83 -515 -86 0
-83 -515 86 0
-83 515 84 0
84 -516 -85 0
84 516 -531 69 0
84 516 531 -69 0
-84 -516 85 0
-84 516 -531 -69 0
-84 516 531 69 0
85 -532 26 0
85 532 -26 0
-85 532 26 0
-85 -532 -26 0
86 -516 -87 0
86 516 -533 27 0
86 516 533 -27 0
-86 -516 87 0
-86 516 -533 -27 0
-86 516 533 27 0
87 -534 28 0
87 534 -28 0
-87 534 28 0
-87 -534 -28 0
88 515 -89 0
88 -515 -91 0
-88 -515 91 0
-88 515 89 0
89 -516 -90 0
89 516 -535 29 0
89 516 535 -29 0
-89 -516 90 0
-89 516 -535 -29 0
-89 516 535 29 0
90 -536 30 0
90 536 -30 0
-90 536 30 0
-90 -536 -30 0
91 -516 -92 0
91 516 -537 31 0
91 516 537 -31 0
-91 -516 92 0
-91 516 -537 -31 0
-91 516 537 31 0
92 -538 32 0
92 538 -32 0
-92 538 32 0
-92 -538 -32 0
93 514 -94 0
93 -514 -99 0
-93 -514 99 0
-93 514 94 0
94 515 -95 0
94 -515 -97 0
-94 -515 97 0
-94 515 95 0
95 -516 -96 0
95 516 -539 33 0
95 516 539 -33 0
-95 -516 96 0
-95 516 -539 -33 0
-95 516 539 33 0
96 -540 34 0
96 540 -34 0
-96 540 34 0
-96 -540 -34 0
97 -516 -98 0
97 516 -541 35 0
97 516 541 -35 0
-97 -516 98 0
-97 516 -541 -35 0
-97 516 541 35 0
98 -542 36 0
98 542 -36 0
-98 542 36 0
-98 -542 -36 0
99 515 -100 0
99 -515 -102 0
-99 -515 102 0
-99 515 100 0
100 -516 -101 0
100 516 -543 37 0
100 516 543 -37 0
-100 -516 101 0
-100 516 -543 -37 0
-100 516 543 37 0
101 -544 38 0
101 544 -38 0
-101 544 38 0
-101 -544 -38 0
102 516 -56 0
102 -516 546 -59 0
102 -516 -546 59 0
-102 516 56 0
-102 -516 -546 -59 0
-102 -516 546 59 0
-103 104 113 0
103 -104 0
103 -113 0
104 -105 112 0
-104 105 0
-104 -112 0
105 513 -106 0
105 -513 -109 0
-105 -513 109 0
-105 513 106 0
106 514 -107 0
106 -514 -108 0
-106 -514 108 0
-106 514 107 0
107 515 -86 0
107 -515 -89 0
-107 -515 89 0
-107 515 86 0
108 515 -91 0
108 -515 -95 0
-108 -515 95 0
-108 515 91 0
109 514 -110 0
109 -514 -111 0
-109 -514 111 0
-109 514 110 0
110 515 -97 0
110 -515 -100 0
-110 -515 100 0
-110 515 97 0
111 -515 -80 0
111 515 -102 0
-111 -515 80 0
-111 515 102 0
-112 512 8 0
112 -512 0
112 -8 0
113 112 -114 0
-113 -112 0
-113 114 0
114 513 -115 0
114 -513 -116 0
-114 -513 116 0
-114 513 115 0
115 514 -43 0
115 -514 -49 0
-115 -514 49 0
-115 514 43 0
-116 514 54 0
-116 -514 117 0
116 -514 -117 0
116 514 -54 0
117 515 516 -548 0
-117 548 0
-117 -516 0
-117 -515 0
118 112 -119 0
-118 -112 0
-118 119 0
119 513 -109 0
-119 -513 0
-119 109 0
120 -512 121 124 0
120 121 -124 -125 0
-120 -121 0
-120 512 124 0
-120 -124 125 0
121 112 -122 0
-121 -112 0
-121 122 0
122 513 -123 0
-122 -513 0
-122 123 0
123 514 -111 0
-123 -514 0
-123 111 0
124 -61 112 0
-124 61 0
-124 -112 0
125 -516 126 0
-125 516 0
-125 -126 0
126 -77 112 0
-126 77 0
-126 -112 0
-127 128 184 211 219 0
127 -219 0
127 -128 0
127 -184 0
127 -211 0
-128 129 163 0
128 -129 0
128 -163 0
129 8 -133 0
129 -512 8 -130 0
-129 -8 0
-129 130 133 0
-129 512 133 0
130 513 -131 0
130 -513 -132 0
-130 -513 132 0
-130 513 131 0
131 514 -71 0
131 -514 -73 0
-131 -514 73 0
-131 514 71 0
132 -514 -63 0
132 514 -74 0
-132 -514 63 0
-132 514 74 0
133 512 -513 -157 0
133 512 513 -134 0
-133 -512 0
-133 -513 157 0
-133 513 134 0
134 514 -135 0
134 -514 -152 0
-134 -514 152 0
-134 514 135 0
135 -515 -150 0
135 515 -136 0
-135 515 136 0
-135 -515 150 0
-136 -516 149 0
-136 516 -518 -137 0
-136 516 518 137 0
136 -516 -149 0
136 516 -518 137 0
136 516 518 -137 0
-137 519 138 0
137 -519 0
137 -138 0
-138 520 139 0
138 -520 0
138 -139 0
-139 521 140 0
139 -521 0
139 -140 0
-140 522 141 0
140 -522 0
140 -141 0
-141 523 142 0
141 -523 0
141 -142 0
-142 524 143 0
142 -524 0
142 -143 0
-143 525 144 0
143 -525 0
143 -144 0
-144 526 145 0
144 -526 0
144 -145 0
-145 527 146 0
145 -527 0
145 -146 0
-146 528 147 0
146 -528 0
146 -147 0
-147 529 148 0
147 -529 0
147 -148 0
-148 530 68 0
148 -530 0
148 -68 0
149 -519 138 0
149 519 -138 0
-149 519 138 0
-149 -519 -138 0
150 -516 -151 0
150 516 -520 139 0
150 516 520 -139 0
-150 -516 151 0
-150 516 -520 -139 0
-150 516 520 139 0
151 -521 140 0
151 521 -140 0
-151 521 140 0
-151 -521 -140 0
152 515 -153 0
152 -515 -155 0
-152 -515 155 0
-152 515 153 0
153 -516 -154 0
153 516 -522 141 0
153 516 522 -141 0
-153 -516 154 0
-153 516 -522 -141 0
-153 516 522 141 0
154 -523 142 0
154 523 -142 0
-154 523 142 0
-154 -523 -142 0
155 -516 -156 0
155 516 -524 143 0
155 516 524 -143 0
-155 -516 156 0
-155 516 -524 -143 0
-155 516 524 143 0
156 -525 144 0
156 525 -144 0
-156 525 144 0
-156 -525 -144 0
157 -514 -66 0
157 514 -158 0
-157 514 158 0
-157 -514 66 0
158 515 -159 0
158 -515 -161 0
-158 -515 161 0
-158 515 159 0
159 -516 -160 0
159 516 -526 145 0
159 516 526 -145 0
-159 -516 160 0
-159 516 -526 -145 0
-159 516 526 145 0
160 -527 146 0
160 527 -146 0
-160 527 146 0
-160 -527 -146 0
161 -516 -162 0
161 516 -528 147 0
161 516 528 -147 0
-161 -516 162 0
-161 516 -528 -147 0
-161 516 528 147 0
162 -529 148 0
162 529 -148 0
-162 529 148 0
-162 -529 -148 0
-163 164 170 0
163 -164 0
163 -170 0
164 512 8 -166 0
164 -512 8 -165 0
-164 -8 0
-164 -512 165 0
-164 512 166 0
-165 513 48 0
-165 -513 21 0
165 -513 -21 0
165 513 -48 0
166 -23 -167 0
166 513 -167 0
-166 167 0
-166 -513 23 0
-167 513 -514 169 0
-167 513 514 168 0
167 -513 0
167 -514 -169 0
167 514 -168 0
168 515 -155 0
168 -515 -159 0
-168 -515 159 0
-168 515 155 0
169 -515 -67 0
169 515 -161 0
-169 515 161 0
-169 -515 67 0
170 512 8 -172 0
170 -512 8 -171 0
-170 -8 0
-170 -512 171 0
-170 512 172 0
-171 513 93 0
-171 -513 78 0
171 -513 -78 0
171 513 -93 0
172 -82 -173 0
172 513 -173 0
-172 173 0
-172 -513 82 0
-173 513 -514 179 0
-173 513 514 174 0
173 -513 0
173 -514 -179 0
173 514 -174 0
174 515 -175 0
174 -515 -177 0
-174 -515 177 0
-174 515 175 0
175 -516 -176 0
175 516 -523 142 0
175 516 523 -142 0
-175 -516 176 0
-175 516 -523 -142 0
-175 516 523 142 0
176 -524 143 0
176 524 -143 0
-176 524 143 0
-176 -524 -143 0
177 -516 -178 0
177 516 -525 144 0
177 516 525 -144 0
-177 -516 178 0
-177 516 -525 -144 0
-177 516 525 144 0
178 -526 145 0
178 526 -145 0
-178 526 145 0
-178 -526 -145 0
179 515 -180 0
179 -515 -182 0
-179 -515 182 0
-179 515 180 0
180 -516 -181 0
180 516 -527 146 0
180 516 527 -146 0
-180 -516 181 0
-180 516 -527 -146 0
-180 516 527 146 0
181 -528 147 0
181 528 -147 0
-181 528 147 0
-181 -528 -147 0
182 -516 -183 0
182 516 -529 148 0
182 516 529 -148 0
-182 -516 183 0
-182 516 -529 -148 0
-182 516 529 148 0
183 -530 68 0
183 530 -68 0
-183 530 68 0
-183 -530 -68 0
-184 185 199 0
184 -185 0
184 -199 0
185 512 8 -186 0
185 -512 8 -105 0
-185 -8 0
-185 512 186 0
-185 -512 105 0
-186 513 -195 0
-186 -513 187 0
-186 513 190 0
186 -513 -187 0
186 513 -190 195 0
187 514 -188 0
187 -514 -189 0
-187 -514 189 0
-187 514 188 0
188 515 -177 0
188 -515 -180 0
-188 -515 180 0
-188 515 177 0
189 -515 -84 0
189 515 -182 0
-189 515 182 0
-189 -515 84 0
-190 514 515 193 0
-190 514 -515 191 0
190 -514 0
190 -515 -191 0
190 515 -193 0
191 -516 -192 0
191 516 -519 138 0
191 516 519 -138 0
-191 -516 192 0
-191 516 -519 -138 0
-191 516 519 138 0
192 -520 139 0
192 520 -139 0
-192 520 139 0
-192 -520 -139 0
-193 -137 -194 0
-193 -516 -518 -137 0
-193 -518 -194 0
-193 518 137 194 0
193 518 -137 194 0
193 518 137 -194 0
193 516 -137 194 0
193 -518 137 194 0
194 516 -517 0
-194 -516 0
-194 517 0
195 -514 196 0
-195 514 0
-195 -196 0
196 -515 -175 0
196 515 -197 0
-196 515 197 0
-196 -515 175 0
197 -516 -198 0
197 516 -521 140 0
197 516 521 -140 0
-197 -516 198 0
-197 516 -521 -140 0
-197 516 521 140 0
198 -522 141 0
198 522 -141 0
-198 522 141 0
-198 -522 -141 0
-199 200 205 0
199 -200 0
199 -205 0
200 8 -201 0
200 -512 8 -114 0
-200 -8 0
-200 114 201 0
-200 512 201 0
201 512 513 -203 0
201 512 -202 -203 0
-201 -512 0
-201 203 0
-201 -513 202 0
202 -514 -24 0
202 514 -169 0
-202 514 169 0
-202 -514 24 0
-203 513 514 204 0
-203 513 -514 168 0
203 -513 0
203 -514 -168 0
203 514 -204 0
-204 -515 153 0
-204 515 150 0
204 515 -150 0
204 -515 -153 0
205 512 8 -208 0
205 -512 8 -206 0
-205 -8 0
-205 -512 206 0
-205 512 208 0
-206 513 207 0
-206 -513 123 0
206 -513 -123 0
206 513 -207 0
207 514 -108 0
207 -514 -110 0
-207 -514 110 0
-207 514 108 0
208 -209 -210 0
208 513 -210 0
-208 210 0
-208 -513 209 0
209 -514 -107 0
209 514 -189 0
-209 514 189 0
-209 -514 107 0
-210 513 -514 188 0
-210 513 514 196 0
210 -513 0
210 -514 -188 0
210 514 -196 0
211 8 -215 0
211 -512 8 -212 0
-211 -8 0
-211 212 215 0
-211 512 215 0
212 513 -213 0
212 -513 -214 0
-212 -513 214 0
-212 513 213 0
213 514 -88 0
213 -514 -94 0
-213 -514 94 0
-213 514 88 0
214 -514 -79 0
214 514 -99 0
-214 514 99 0
-214 -514 79 0
215 512 513 -217 0
215 512 -216 -217 0
-215 -512 0
-215 217 0
-215 -513 216 0
216 -514 -83 0
216 514 -179 0
-216 514 179 0
-216 -514 83 0
-217 513 514 218 0
-217 513 -514 174 0
217 -513 0
217 -514 -174 0
217 514 -218 0
-218 -515 197 0
-218 515 191 0
218 515 -191 0
218 -515 -197 0
-219 220 235 245 248 0
219 -235 0
219 -248 0
219 -220 0
219 -245 0
-220 221 229 230 234 0
220 -230 0
220 -234 0
220 -221 0
220 -229 0
-221 222 227 0
221 -222 0
221 -227 0
-222 -112 224 225 0
-222 223 224 225 0
222 -225 0
222 -224 0
222 112 -223 0
223 513 -214 0
-223 -513 0
-223 214 0
224 112 -206 0
-224 -112 0
-224 206 0
225 112 -226 0
-225 -112 0
-225 226 0
226 513 -116 0
-226 -513 0
-226 116 0
227 112 -228 0
227 112 -165 0
-227 -112 0
-227 165 228 0
-228 513 72 0
-228 -513 62 0
228 -513 -62 0
228 513 -72 0
229 112 -212 0
-229 -112 0
-229 212 0
-230 231 233 0
230 -231 0
230 -233 0
231 112 -232 0
-231 -112 0
-231 232 0
232 513 -132 0
-232 -513 0
-232 132 0
233 112 -171 0
-233 -112 0
-233 171 0
234 112 -130 0
-234 -112 0
-234 130 0
-235 236 238 240 0
235 -240 0
235 -238 0
235 -236 0
236 8 -237 0
236 -512 8 -232 0
-236 -8 0
-236 232 237 0
-236 512 237 0
237 512 513 -157 0
237 512 -513 -131 0
-237 -512 0
-237 -513 131 0
-237 513 157 0
238 8 -239 0
238 -512 8 -223 0
-238 -8 0
-238 223 239 0
-238 512 239 0
239 512 513 -216 0
239 512 -513 -213 0
-239 -512 0
-239 -513 213 0
-239 513 216 0
-240 241 243 0
240 -241 0
240 -243 0
241 8 -242 0
241 -512 8 -226 0
-241 -8 0
-241 226 242 0
-241 512 242 0
242 512 513 -202 0
242 512 -513 -115 0
-242 -512 0
-242 -513 115 0
-242 513 202 0
243 8 -244 0
243 -512 8 -122 0
-243 -8 0
-243 122 244 0
-243 512 244 0
244 512 513 -209 0
244 512 -513 -207 0
-244 -512 0
-244 -513 207 0
-244 513 209 0
245 512 8 -246 0
245 -512 8 -228 0
-245 -8 0
-245 -512 228 0
-245 512 246 0
246 -65 -247 0
246 513 -247 0
-246 247 0
-246 -513 65 0
-247 513 -514 158 0
-247 513 514 152 0
247 -513 0
247 -514 -158 0
247 514 -152 0
248 8 -249 0
248 -512 8 -119 0
-248 -8 0
-248 119 249 0
-248 512 249 0
249 512 513 -187 0
249 512 -513 -106 0
-249 -512 0
-249 -513 106 0
-249 513 187 0
250 -120 251 440 0
-250 120 0
-250 -251 0
-250 -440 0
-251 234 252 416 419 0
251 -234 0
251 -419 0
251 -416 0
251 -252 0
-252 253 409 0
252 -253 0
252 -409 0
253 254 -404 0
253 -254 404 0
-253 -254 -404 0
-253 254 404 0
-254 255 399 0
254 -255 0
254 -399 0
-255 256 394 0
255 -256 0
255 -394 0
-256 257 389 0
256 -257 0
256 -389 0
-257 258 384 0
257 -258 0
257 -384 0
-258 -8 259 0
-258 259 379 0
258 -259 0
258 8 -379 0
-259 260 374 0
259 -260 0
259 -374 0
-260 261 369 0
260 -261 0
260 -369 0
-261 262 364 0
261 -262 0
261 -364 0
-262 263 354 359 0
262 -263 0
262 -359 0
262 -354 0
-263 264 349 0
263 -264 0
263 -349 0
-264 -8 265 343 0
-264 265 338 343 0
264 -265 0
264 -343 0
264 8 -338 0
-265 -112 266 0
-265 266 330 334 0
265 -266 0
265 112 -334 0
265 112 -330 0
-266 -112 267 0
-266 267 322 326 0
266 -267 0
266 112 -326 0
266 112 -322 0
-267 -112 268 0
-267 268 318 0
267 -268 0
267 112 -318 0
-268 269 313 0
268 -269 0
268 -313 0
-269 -112 270 0
-269 270 309 0
269 -270 0
269 112 -309 0
-270 271 304 0
270 -271 0
270 -304 0
-271 -112 272 0
-271 272 300 0
271 -272 0
271 112 -300 0
-272 273 279 295 0
-272 -112 279 295 0
272 -279 0
272 -295 0
272 112 -273 0
273 513 -274 0
-273 -513 0
-273 274 0
274 514 -275 0
274 -514 -278 0
-274 -514 278 0
-274 514 275 0
275 515 -276 0
275 -515 -277 0
-275 -515 277 0
-275 515 276 0
276 516 -543 0
276 -516 -544 0
-276 -516 544 0
-276 516 543 0
277 516 -545 0
277 -516 -546 0
-277 -516 546 0
-277 516 545 0
278 515 -516 -548 0
278 515 516 -547 0
-278 -515 0
-278 -516 548 0
-278 516 547 0
-279 -112 280 0
-279 280 287 291 0
279 -280 0
279 112 -291 0
279 112 -287 0
-280 -112 281 0
-280 281 283 0
280 -281 0
280 112 -283 0
-281 -513 0
-281 -112 0
-281 21 282 0
281 513 -21 112 0
281 513 112 -282 0
282 514 -278 0
-282 -514 0
-282 278 0
283 513 -284 0
-283 -513 0
-283 284 0
284 514 -285 0
-284 -514 0
-284 285 0
-285 -515 -516 0
-285 515 286 0
-285 -515 548 0
285 515 -286 0
285 -515 516 -548 0
286 516 -546 0
286 -516 -547 0
-286 -516 547 0
-286 516 546 0
287 513 -288 0
-287 -513 0
-287 288 0
288 514 -289 0
-288 -514 0
-288 289 0
289 515 -277 0
289 -515 -290 0
-289 -515 290 0
-289 515 277 0
-290 -516 548 0
-290 516 547 0
290 516 -547 0
290 -516 -548 0
291 513 -292 0
-291 -513 0
-291 292 0
-292 514 293 0
-292 -514 117 0
292 -514 -117 0
292 514 -293 0
293 -515 -286 0
293 515 -294 0
-293 515 294 0
-293 -515 286 0
294 516 -544 0
294 -516 -545 0
-294 -516 545 0
-294 516 544 0
295 112 -296 0
-295 -112 0
-295 296 0
296 513 -297 0
-296 -513 0
-296 297 0
297 -514 -285 0
297 514 -298 0
-297 -514 285 0
-297 514 298 0
298 -515 -294 0
298 515 -299 0
-298 515 299 0
-298 -515 294 0
299 516 -542 0
299 -516 -543 0
-299 -516 543 0
-299 516 542 0
300 513 -301 0
-300 -513 0
-300 301 0
301 -514 -289 0
301 514 -302 0
-301 514 302 0
-301 -514 289 0
302 -515 -276 0
302 515 -303 0
-302 515 303 0
-302 -515 276 0
303 516 -541 0
303 -516 -542 0
-303 -516 542 0
-303 516 541 0
304 112 -305 0
-304 -112 0
-304 305 0
-305 513 306 0
-305 -513 21 0
305 -513 -21 0
305 513 -306 0
306 -514 -293 0
306 514 -307 0
-306 514 307 0
-306 -514 293 0
307 -515 -299 0
307 515 -308 0
-307 515 308 0
-307 -515 299 0
308 516 -540 0
308 -516 -541 0
-308 -516 541 0
-308 516 540 0
309 -513 -282 0
309 513 -310 0
-309 513 310 0
-309 -513 282 0
310 -514 -275 0
310 514 -311 0
-310 514 311 0
-310 -514 275 0
311 -515 -303 0
311 515 -312 0
-311 515 312 0
-311 -515 303 0
312 516 -539 0
312 -516 -540 0
-312 -516 540 0
-312 516 539 0
313 112 -314 0
-313 -112 0
-313 314 0
314 -513 -284 0
314 513 -315 0
-314 513 315 0
-314 -513 284 0
315 -514 -298 0
315 514 -316 0
-315 514 316 0
-315 -514 298 0
316 -515 -308 0
316 515 -317 0
-316 515 317 0
-316 -515 308 0
317 516 -538 0
317 -516 -539 0
-317 -516 539 0
-317 516 538 0
318 -513 -288 0
318 513 -319 0
-318 513 319 0
-318 -513 288 0
319 -514 -302 0
319 514 -320 0
-319 514 320 0
-319 -514 302 0
320 -515 -312 0
320 515 -321 0
-320 515 321 0
-320 -515 312 0
321 516 -537 0
321 -516 -538 0
-321 -516 538 0
-321 516 537 0
322 -513 -292 0
322 513 -323 0
-322 -513 292 0
-322 513 323 0
323 -514 -307 0
323 514 -324 0
-323 514 324 0
-323 -514 307 0
324 -515 -317 0
324 515 -325 0
-324 515 325 0
-324 -515 317 0
325 516 -536 0
325 -516 -537 0
-325 -516 537 0
-325 516 536 0
326 -513 -274 0
326 513 -327 0
-326 513 327 0
-326 -513 274 0
327 -514 -311 0
327 514 -328 0
-327 514 328 0
-327 -514 311 0
328 -515 -321 0
328 515 -329 0
-328 515 329 0
-328 -515 321 0
329 516 -535 0
329 -516 -536 0
-329 -516 536 0
-329 516 535 0
330 -513 -297 0
330 513 -331 0
-330 513 331 0
-330 -513 297 0
331 -514 -316 0
331 514 -332 0
-331 514 332 0
-331 -514 316 0
332 -515 -325 0
332 515 -333 0
-332 515 333 0
-332 -515 325 0
333 516 -534 0
333 -516 -535 0
-333 -516 535 0
-333 516 534 0
334 -513 -301 0
334 513 -335 0
-334 513 335 0
-334 -513 301 0
335 -514 -320 0
335 514 -336 0
-335 514 336 0
-335 -514 320 0
336 -515 -329 0
336 515 -337 0
-336 515 337 0
-336 -515 329 0
337 516 -533 0
337 -516 -534 0
-337 -516 534 0
-337 516 533 0
-338 -512 20 0
-338 512 339 0
338 -512 -20 0
338 512 -339 0
-339 513 340 0
-339 -513 306 0
339 -513 -306 0
339 513 -340 0
340 -514 -324 0
340 514 -341 0
-340 514 341 0
-340 -514 324 0
341 -515 -333 0
341 515 -342 0
-341 515 342 0
-341 -515 333 0
342 516 -532 0
342 -516 -533 0
-342 -516 533 0
-342 516 532 0
343 512 8 -345 0
343 -512 8 -344 0
-343 -8 0
-343 -512 344 0
-343 512 345 0
344 513 -282 0
-344 -513 0
-344 282 0
345 -513 -310 0
345 513 -346 0
-345 513 346 0
-345 -513 310 0
346 -514 -328 0
346 514 -347 0
-346 514 347 0
-346 -514 328 0
347 -515 -337 0
347 515 -348 0
-347 515 348 0
-347 -515 337 0
348 516 -531 0
348 -516 -532 0
-348 -516 532 0
-348 516 531 0
349 512 8 -350 0
349 -512 8 -283 0
-349 -8 0
-349 -512 283 0
-349 512 350 0
350 -513 -315 0
350 513 -351 0
-350 513 351 0
-350 -513 315 0
351 -514 -332 0
351 514 -352 0
-351 514 352 0
-351 -514 332 0
352 -515 -342 0
352 515 -353 0
-352 515 353 0
-352 -515 342 0
353 516 -530 0
353 -516 -531 0
-353 -516 531 0
-353 516 530 0
354 512 8 -355 0
354 -512 8 -287 0
-354 -8 0
-354 -512 287 0
-354 512 355 0
355 -513 -319 0
355 513 -356 0
-355 513 356 0
-355 -513 319 0
356 -514 -336 0
356 514 -357 0
-356 514 357 0
-356 -514 336 0
357 -515 -348 0
357 515 -358 0
-357 515 358 0
-357 -515 348 0
358 516 -529 0
358 -516 -530 0
-358 -516 530 0
-358 516 529 0
359 512 8 -360 0
359 -512 8 -291 0
-359 -8 0
-359 -512 291 0
-359 512 360 0
360 -513 -323 0
360 513 -361 0
-360 513 361 0
-360 -513 323 0
361 -514 -341 0
361 514 -362 0
-361 514 362 0
-361 -514 341 0
362 -515 -353 0
362 515 -363 0
-362 515 363 0
-362 -515 353 0
363 516 -528 0
363 -516 -529 0
-363 -516 529 0
-363 516 528 0
364 512 8 -365 0
364 -512 8 -273 0
-364 -8 0
-364 -512 273 0
-364 512 365 0
365 -513 -327 0
365 513 -366 0
-365 513 366 0
-365 -513 327 0
366 -514 -347 0
366 514 -367 0
-366 514 367 0
-366 -514 347 0
367 -515 -358 0
367 515 -368 0
-367 515 368 0
-367 -515 358 0
368 516 -527 0
368 -516 -528 0
-368 -516 528 0
-368 516 527 0
369 512 8 -370 0
369 -512 8 -296 0
-369 -8 0
-369 -512 296 0
-369 512 370 0
370 -513 -331 0
370 513 -371 0
-370 513 371 0
-370 -513 331 0
371 -514 -352 0
371 514 -372 0
-371 514 372 0
-371 -514 352 0
372 -515 -363 0
372 515 -373 0
-372 515 373 0
-372 -515 363 0
373 516 -526 0
373 -516 -527 0
-373 -516 527 0
-373 516 526 0
374 512 8 -375 0
374 -512 8 -300 0
-374 -8 0
-374 -512 300 0
-374 512 375 0
375 -513 -335 0
375 513 -376 0
-375 513 376 0
-375 -513 335 0
376 -514 -357 0
376 514 -377 0
-376 514 377 0
-376 -514 357 0
377 -515 -368 0
377 515 -378 0
-377 515 378 0
-377 -515 368 0
378 516 -525 0
378 -516 -526 0
-378 -516 526 0
-378 516 525 0
-379 -512 305 0
-379 512 380 0
379 512 -380 0
379 -512 -305 0
-380 -513 340 0
-380 513 381 0
380 -513 -340 0
380 513 -381 0
-381 514 382 0
-381 -514 362 0
381 -514 -362 0
381 514 -382 0
382 -515 -373 0
382 515 -383 0
-382 515 383 0
-382 -515 373 0
383 516 -524 0
383 -516 -525 0
-383 -516 525 0
-383 516 524 0
384 512 8 -385 0
384 -512 8 -309 0
-384 -8 0
-384 512 385 0
-384 -512 309 0
-385 -513 346 0
-385 513 386 0
385 -513 -346 0
385 513 -386 0
-386 514 387 0
-386 -514 367 0
386 -514 -367 0
386 514 -387 0
387 -515 -378 0
387 515 -388 0
-387 515 388 0
-387 -515 378 0
388 516 -523 0
388 -516 -524 0
-388 -516 524 0
-388 516 523 0
389 512 8 -390 0
389 -512 8 -314 0
-389 -8 0
-389 512 390 0
-389 -512 314 0
-390 -513 351 0
-390 513 391 0
390 -513 -351 0
390 513 -391 0
-391 514 392 0
-391 -514 372 0
391 -514 -372 0
391 514 -392 0
392 -515 -383 0
392 515 -393 0
-392 515 393 0
-392 -515 383 0
393 516 -522 0
393 -516 -523 0
-393 -516 523 0
-393 516 522 0
394 512 8 -395 0
394 -512 8 -318 0
-394 -8 0
-394 512 395 0
-394 -512 318 0
-395 -513 356 0
-395 513 396 0
395 -513 -356 0
395 513 -396 0
-396 514 397 0
-396 -514 377 0
396 -514 -377 0
396 514 -397 0
397 -515 -388 0
397 515 -398 0
-397 515 398 0
-397 -515 388 0
398 516 -521 0
398 -516 -522 0
-398 -516 522 0
-398 516 521 0
399 512 8 -400 0
399 -512 8 -322 0
-399 -8 0
-399 512 400 0
-399 -512 322 0
-400 -513 361 0
-400 513 401 0
400 -513 -361 0
400 513 -401 0
-401 -514 382 0
-401 514 402 0
401 -514 -382 0
401 514 -402 0
-402 515 403 0
-402 -515 393 0
402 -515 -393 0
402 515 -403 0
403 516 -520 0
403 -516 -521 0
-403 -516 521 0
-403 516 520 0
404 512 8 -405 0
404 -512 8 -326 0
-404 -8 0
-404 512 405 0
-404 -512 326 0
-405 -513 366 0
-405 513 406 0
405 -513 -366 0
405 513 -406 0
-406 -514 387 0
-406 514 407 0
406 -514 -387 0
406 514 -407 0
-407 515 408 0
-407 -515 398 0
407 -515 -398 0
407 515 -408 0
408 516 -519 0
408 -516 -520 0
-408 -516 520 0
-408 516 519 0
409 410 -411 0
409 -410 411 0
-409 -410 -411 0
-409 410 411 0
-410 254 404 0
410 -254 0
410 -404 0
411 512 8 -412 0
411 -512 8 -330 0
-411 -8 0
-411 512 412 0
-411 -512 330 0
-412 -513 371 0
-412 513 413 0
412 -513 -371 0
412 513 -413 0
-413 -514 392 0
-413 514 414 0
413 -514 -392 0
413 514 -414 0
-414 515 415 0
-414 -515 403 0
414 -515 -403 0
414 515 -415 0
415 516 -518 0
415 -516 -519 0
-415 -516 519 0
-415 516 518 0
-416 224 271 304 417 0
-416 224 -271 -304 417 0
416 -417 0
416 271 -304 0
416 -224 0
416 -271 304 0
-417 118 225 229 418 0
417 -418 0
417 -229 0
417 -118 0
417 -225 0
418 273 -295 0
418 112 -273 279 0
418 -279 295 0
418 -112 -295 0
-418 273 279 295 0
-418 -112 279 295 0
-418 112 -273 -279 -295 0
-419 420 429 430 431 0
419 -431 0
419 -430 0
419 -420 0
419 -429 0
-420 -421 -422 427 0
-420 421 422 427 0
420 -427 0
420 -421 422 0
420 421 -422 0
-421 410 411 0
421 -410 0
421 -411 0
422 512 8 -423 0
422 -512 8 -334 0
-422 -8 0
-422 512 423 0
-422 -512 334 0
-423 -513 376 0
-423 513 424 0
423 -513 -376 0
423 513 -424 0
-424 -514 397 0
-424 514 425 0
424 -514 -397 0
424 514 -425 0
-425 -515 408 0
-425 515 426 194 0
425 515 -426 0
425 -515 -408 0
425 515 -194 0
426 -516 -518 0
-426 516 0
-426 518 0
-427 233 264 349 428 0
-427 233 -264 -349 428 0
427 -428 0
427 264 -349 0
427 -233 0
427 -264 349 0
-428 7 76 0
428 -7 0
428 -76 0
429 256 -394 0
429 -256 394 0
-429 -256 -394 0
-429 256 394 0
430 255 -399 0
430 -255 399 0
-430 -255 -399 0
-430 255 399 0
-431 243 432 438 439 0
431 -432 0
431 -439 0
431 -243 0
431 -438 0
-432 241 433 434 436 0
432 -241 0
432 -436 0
432 -434 0
432 -433 0
433 260 -374 0
433 -260 374 0
-433 -260 -374 0
-433 260 374 0
-434 113 435 0
434 -113 0
434 -435 0
435 269 -313 0
435 -269 313 0
-435 -269 -313 0
-435 269 313 0
-436 164 437 0
436 -164 0
436 -437 0
437 258 -384 0
437 -258 384 0
-437 -258 -384 0
-437 258 384 0
438 257 -389 0
438 -257 389 0
-438 -257 -389 0
-438 257 389 0
439 261 -369 0
439 -261 369 0
-439 -261 -369 0
-439 261 369 0
-440 104 262 364 0
-440 104 -262 -364 0
440 -104 0
440 262 -364 0
440 -262 364 0
441 -442 445 446 0
-441 442 0
-441 -445 0
-441 -446 0
442 6 118 220 -443 0
-442 443 0
-442 -6 0
-442 -220 0
-442 -118 0
443 121 -444 0
-443 -121 0
-443 444 0
444 -515 124 0
-444 515 0
-444 -124 0
-445 129 184 211 0
445 -129 0
445 -184 0
445 -211 0
-446 164 235 248 447 0
446 -235 0
446 -248 0
446 -164 0
446 -447 0
-447 170 245 0
447 -170 0
447 -245 0
448 251 440 -443 0
-448 -251 0
-448 -440 0
-448 443 0
449 6 163 445 -450 0
-449 450 0
-449 -6 0
-449 -445 0
-449 -163 0
450 118 219 -451 0
-450 451 0
-450 -219 0
-450 -118 0
451 121 124 -125 0
-451 125 0
-451 -124 0
-451 -121 0
452 251 440 -451 0
-452 -251 0
-452 -440 0
-452 451 0
453 -420 -454 0
453 -454 -465 0
453 -454 467 0
-453 454 0
-453 420 465 -467 0
454 164 455 -456 458 0
-454 -164 0
-454 -458 0
-454 456 0
-454 -455 0
-455 7 229 243 0
455 -7 0
455 -243 0
455 -229 0
456 113 222 447 -457 0
-456 -113 0
-456 457 0
-456 -447 0
-456 -222 0
457 -121 -444 0
457 -507 121 0
-457 -121 444 0
-457 507 121 0
-458 199 248 459 461 0
458 -461 0
458 -199 0
458 -459 0
458 -248 0
-459 129 460 0
459 -129 0
459 -460 0
-460 185 211 0
460 -185 0
460 -211 0
-461 230 241 462 463 0
461 -463 0
461 -230 0
461 -462 0
461 -241 0
-462 76 227 236 238 0
462 -238 0
462 -236 0
462 -76 0
462 -227 0
-463 104 234 464 0
463 -464 0
463 -234 0
463 -104 0
-464 60 118 0
464 -60 0
464 -118 0
-465 243 429 438 466 0
465 -466 0
465 -438 0
465 -243 0
465 -429 0
-466 164 433 437 439 0
466 -439 0
466 -437 0
466 -164 0
466 -433 0
467 241 416 468 -469 0
-467 -241 0
-467 469 0
-467 -468 0
-467 -416 0
-468 252 430 0
468 -252 0
468 -430 0
469 234 434 440 -457 0
-469 -234 0
-469 457 0
-469 -440 0
-469 -434 0
470 211 220 471 -473 0
-470 -211 0
-470 473 0
-470 -471 0
-470 -220 0
-471 60 170 240 472 0
471 -60 0
471 -472 0
471 -240 0
471 -170 0
-472 236 248 0
472 -236 0
472 -248 0
473 238 474 475 -476 0
-473 -238 0
-473 476 0
-473 -475 0
-473 -474 0
-474 129 164 185 200 0
474 -200 0
474 -185 0
474 -129 0
474 -164 0
-475 205 245 0
475 -205 0
475 -245 0
476 7 75 118 -477 0
-476 -75 0
-476 -118 0
-476 -7 0
-476 477 0
477 121 124 -478 0
-477 478 0
-477 -124 0
-477 -121 0
478 -516 -126 0
478 -514 126 0
-478 514 126 0
-478 516 -126 0
479 251 440 -477 0
-479 -251 0
-479 -440 0
-479 477 0
480 481 -484 0
480 -481 484 0
-480 -481 -484 0
-480 481 484 0
481 220 464 482 -483 0
-481 483 0
-481 -220 0
-481 -482 0
-481 -464 0
-482 446 459 0
482 -446 0
482 -459 0
483 -513 103 199 428 0
-483 -428 0
-483 513 0
-483 -199 0
-483 -103 0
484 -513 251 440 0
-484 513 0
-484 -251 0
-484 -440 0
-549 0
2 0

